365794973637140707502,3,1,2,02,12,1,2,03,2,1,2,05,2,1,2,04,3,1,2,03,14,1,2,09,10,1,2,010,8,1,2,03,9,1,2,012,5,1,2,03,11,1,2,011,8,1,2,010,14,1,2,012,11,1,2,012,4,1,2,01,7,1,2,04,5,1,2,01,14,1,2,08,13,1,2,07,3,1,2,01,11,1,2,04,6,1,2,03,2,1,2,03,10,1,2,014,3,1,2,02,3,1,2,03,4,1,2,012,2,1,2,01,12,1,2,01,8,1,2,011,8,1,2,01,1,1,2,01,10,1,2,07,3,1,2,015,14,1,2,015,4,1,2,09,7,1,2,09,10,1,2,07,3,1,2,01,5,1,2,03,8,1,2,010,2,1,2,03,13,1,2,010,3,1,2,014,8,1,2,02,2,1,2,06,5,1,2,09,8,1,2,012,9,1,2,08,15,1,2,0